min: c;

c = 4.0628413087098 * u4_t1_h1 + 3.68451178364081 * u4_t1_h2 + 3.45691169177382 * u4_t1_h3 + 3.40237437467646 * u4_t1_h4 + 3.40237437467646 * u4_t10_h4 + 3.32094219427881 * u4_t1_h5 + 3.32094219427881 * u4_t10_h5 + 3.86999186284685 * u4_t1_h6 + 3.86999186284685 * u4_t10_h6 + 4.20636311522058 * u4_t1_h7 + 4.20636311522058 * u4_t10_h7 + 5.57398754306493 * u4_t1_h8 + 5.57398754306493 * u4_t9_h8 + 5.57398754306493 * u4_t10_h8 + 4.80019187627004 * u4_t9_h9 + 4.80019187627004 * u4_t10_h9 + 5.11288453326342 * u4_t9_h10 + 5.11288453326342 * u4_t10_h10 + 3.52462872825933 * u4_t2_h11 + 3.52462872825933 * u4_t4_h11 + 3.52462872825933 * u4_t9_h11 + 3.52462872825933 * u4_t10_h11 + 6.5945838227744 * u4_t2_h12 + 6.5945838227744 * u4_t3_h12 + 6.5945838227744 * u4_t4_h12 + 6.5945838227744 * u4_t8_h12 + 6.5945838227744 * u4_t9_h12 + 6.5945838227744 * u4_t10_h12 + 4.48608901774641 * u4_t2_h13 + 4.48608901774641 * u4_t3_h13 + 4.48608901774641 * u4_t4_h13 + 4.48608901774641 * u4_t8_h13 + 4.48608901774641 * u4_t9_h13 + 5.39298743877051 * u4_t2_h14 + 5.39298743877051 * u4_t3_h14 + 5.39298743877051 * u4_t4_h14 + 5.39298743877051 * u4_t8_h14 + 5.39298743877051 * u4_t9_h14 + 6.11184805486147 * u4_t2_h15 + 6.11184805486147 * u4_t3_h15 + 6.11184805486147 * u4_t4_h15 + 6.11184805486147 * u4_t8_h15 + 6.11184805486147 * u4_t9_h15 + 5.41970288296053 * u4_t2_h16 + 5.41970288296053 * u4_t3_h16 + 5.41970288296053 * u4_t4_h16 + 5.41970288296053 * u4_t5_h16 + 5.41970288296053 * u4_t8_h16 + 5.41970288296053 * u4_t9_h16 + 6.59559584811664 * u4_t2_h17 + 6.59559584811664 * u4_t3_h17 + 6.59559584811664 * u4_t5_h17 + 6.59559584811664 * u4_t8_h17 + 6.59559584811664 * u4_t9_h17 + 6.50636482703784 * u4_t2_h18 + 6.50636482703784 * u4_t3_h18 + 6.50636482703784 * u4_t5_h18 + 6.50636482703784 * u4_t8_h18 + 6.50636482703784 * u4_t9_h18 + 5.96745948913791 * u4_t2_h19 + 5.96745948913791 * u4_t3_h19 + 5.96745948913791 * u4_t6_h19 + 5.96745948913791 * u4_t8_h19 + 5.96745948913791 * u4_t9_h19 + 5.46663546580134 * u4_t2_h20 + 5.46663546580134 * u4_t6_h20 + 5.46663546580134 * u4_t9_h20 + 5.31061806778933 * u4_t6_h21 + 5.29273776731031 * u4_t6_h22 + 5.29273776731031 * u4_t7_h22 + 5.91240651330332 * u4_t6_h23 + 5.91240651330332 * u4_t7_h23;
0 <= u4_t1_h1 <= 1;
0 <= u4_t1_h2 <= 1;
0 <= u4_t1_h3 <= 1;
0 <= u4_t1_h4 <= 1;
0 <= u4_t1_h5 <= 1;
0 <= u4_t1_h6 <= 1;
0 <= u4_t1_h7 <= 1;
0 <= u4_t1_h8 <= 1;
u4_t1_h1 + u4_t1_h2 + u4_t1_h3 + u4_t1_h4 + u4_t1_h5 + u4_t1_h6 + u4_t1_h7 + u4_t1_h8 = 1;
0 <= u4_t2_h11 <= 1;
0 <= u4_t2_h12 <= 1;
0 <= u4_t2_h13 <= 1;
0 <= u4_t2_h14 <= 1;
0 <= u4_t2_h15 <= 1;
0 <= u4_t2_h16 <= 1;
0 <= u4_t2_h17 <= 1;
0 <= u4_t2_h18 <= 1;
0 <= u4_t2_h19 <= 1;
0 <= u4_t2_h20 <= 1;
u4_t2_h11 + u4_t2_h12 + u4_t2_h13 + u4_t2_h14 + u4_t2_h15 + u4_t2_h16 + u4_t2_h17 + u4_t2_h18 + u4_t2_h19 + u4_t2_h20 = 2;
0 <= u4_t3_h12 <= 1;
0 <= u4_t3_h13 <= 1;
0 <= u4_t3_h14 <= 1;
0 <= u4_t3_h15 <= 1;
0 <= u4_t3_h16 <= 1;
0 <= u4_t3_h17 <= 1;
0 <= u4_t3_h18 <= 1;
0 <= u4_t3_h19 <= 1;
u4_t3_h12 + u4_t3_h13 + u4_t3_h14 + u4_t3_h15 + u4_t3_h16 + u4_t3_h17 + u4_t3_h18 + u4_t3_h19 = 3;
0 <= u4_t4_h11 <= 1;
0 <= u4_t4_h12 <= 1;
0 <= u4_t4_h13 <= 1;
0 <= u4_t4_h14 <= 1;
0 <= u4_t4_h15 <= 1;
0 <= u4_t4_h16 <= 1;
u4_t4_h11 + u4_t4_h12 + u4_t4_h13 + u4_t4_h14 + u4_t4_h15 + u4_t4_h16 = 3;
0 <= u4_t5_h16 <= 1;
0 <= u4_t5_h17 <= 1;
0 <= u4_t5_h18 <= 1;
u4_t5_h16 + u4_t5_h17 + u4_t5_h18 = 1;
0 <= u4_t6_h19 <= 1;
0 <= u4_t6_h20 <= 1;
0 <= u4_t6_h21 <= 1;
0 <= u4_t6_h22 <= 1;
0 <= u4_t6_h23 <= 1;
u4_t6_h19 + u4_t6_h20 + u4_t6_h21 + u4_t6_h22 + u4_t6_h23 = 3;
0 <= u4_t7_h22 <= 1;
0 <= u4_t7_h23 <= 1;
u4_t7_h22 + u4_t7_h23 = 1;
0 <= u4_t8_h12 <= 1;
0 <= u4_t8_h13 <= 1;
0 <= u4_t8_h14 <= 1;
0 <= u4_t8_h15 <= 1;
0 <= u4_t8_h16 <= 1;
0 <= u4_t8_h17 <= 1;
0 <= u4_t8_h18 <= 1;
0 <= u4_t8_h19 <= 1;
u4_t8_h12 + u4_t8_h13 + u4_t8_h14 + u4_t8_h15 + u4_t8_h16 + u4_t8_h17 + u4_t8_h18 + u4_t8_h19 = 2;
0 <= u4_t9_h8 <= 1;
0 <= u4_t9_h9 <= 1;
0 <= u4_t9_h10 <= 1;
0 <= u4_t9_h11 <= 1;
0 <= u4_t9_h12 <= 1;
0 <= u4_t9_h13 <= 1;
0 <= u4_t9_h14 <= 1;
0 <= u4_t9_h15 <= 1;
0 <= u4_t9_h16 <= 1;
0 <= u4_t9_h17 <= 1;
0 <= u4_t9_h18 <= 1;
0 <= u4_t9_h19 <= 1;
0 <= u4_t9_h20 <= 1;
u4_t9_h8 + u4_t9_h9 + u4_t9_h10 + u4_t9_h11 + u4_t9_h12 + u4_t9_h13 + u4_t9_h14 + u4_t9_h15 + u4_t9_h16 + u4_t9_h17 + u4_t9_h18 + u4_t9_h19 + u4_t9_h20 = 2;
0 <= u4_t10_h4 <= 1;
0 <= u4_t10_h5 <= 1;
0 <= u4_t10_h6 <= 1;
0 <= u4_t10_h7 <= 1;
0 <= u4_t10_h8 <= 1;
0 <= u4_t10_h9 <= 1;
0 <= u4_t10_h10 <= 1;
0 <= u4_t10_h11 <= 1;
0 <= u4_t10_h12 <= 1;
u4_t10_h4 + u4_t10_h5 + u4_t10_h6 + u4_t10_h7 + u4_t10_h8 + u4_t10_h9 + u4_t10_h10 + u4_t10_h11 + u4_t10_h12 = 2;
